data;


param d:= 100;
param r:=5;
param p:=0.900000;
param M:=1000;
param U:=
         1         1       -3.208206e-01
         2         1       -1.587358e+00
         3         1        6.995436e-01
         4         1        1.062365e+00
         5         1       -1.254882e+00
         6         1       -1.060256e+00
         7         1        1.869324e-01
         8         1       -3.143441e-01
         9         1        6.929079e-01
        10         1       -2.623337e-01
        11         1        1.206035e+00
        12         1        6.347266e-03
        13         1       -1.208410e+00
        14         1        8.794131e-01
        15         1       -8.566210e-02
        16         1       -1.594257e+00
        17         1       -1.318446e+00
        18         1       -3.452587e-01
        19         1        4.029598e-01
        20         1       -1.455838e+00
        21         1        3.957833e-01
        22         1        7.198669e-01
        23         1       -2.899999e+00
        24         1       -1.537456e+00
        25         1        1.971879e+00
        26         1        6.938104e-01
        27         1        9.267998e-01
        28         1       -1.424019e-01
        29         1        5.307789e-01
        30         1       -1.115098e+00
        31         1       -1.639908e+00
        32         1        2.145801e+00
        33         1       -7.288107e-01
        34         1        1.265030e+00
        35         1       -3.880487e-01
        36         1       -2.582183e+00
        37         1        1.997398e+00
        38         1       -2.023680e-01
        39         1       -6.894821e-01
        40         1       -3.567962e-01
        41         1       -3.990311e-01
        42         1        1.304914e-01
        43         1        4.587835e-01
        44         1       -8.636500e-01
        45         1        1.292915e+00
        46         1       -6.310913e-01
        47         1        4.528470e-02
        48         1       -6.818616e-01
        49         1        2.217267e+00
        50         1        8.936577e-01
        51         1        5.973459e-01
        52         1       -9.907337e-01
        53         1        9.626013e-01
        54         1        3.658939e-01
        55         1        3.825045e-01
        56         1       -2.474230e-01
        57         1       -1.685976e+00
        58         1       -5.126938e-01
        59         1       -2.914025e-01
        60         1       -9.933839e-01
        61         1       -7.402249e-01
        62         1       -5.142354e-01
        63         1       -2.137881e-01
        64         1        1.391702e+00
        65         1       -7.506351e-02
        66         1        7.130710e-02
        67         1        1.116109e+00
        68         1       -5.897635e-01
        69         1        1.660582e+00
        70         1       -6.821311e-02
        71         1        1.221685e-01
        72         1       -7.296513e-01
        73         1        7.395881e-01
        74         1        1.569405e+00
        75         1        3.955121e-02
        76         1       -1.276759e+00
        77         1        9.346649e-01
        78         1        7.125086e-01
        79         1        6.324974e-01
        80         1       -8.158009e-01
        81         1        1.862528e-01
        82         1       -2.987719e-01
        83         1       -4.782893e-01
        84         1       -1.172115e+00
        85         1        1.058588e+00
        86         1       -6.148903e-01
        87         1       -4.006050e-02
        88         1        1.574815e-01
        89         1        3.258622e-01
        90         1       -9.429691e-01
        91         1       -2.071336e-01
        92         1        2.380681e-01
        93         1        2.472632e+00
        94         1        2.361482e-01
        95         1        5.433252e-02
        96         1        4.940904e-01
        97         1        2.074678e-01
        98         1        6.780628e-01
        99         1       -1.680373e-01
       100         1        7.574372e-01
         1         2       -1.726024e-01
         2         2        8.304481e-01
         3         2       -3.610296e-01
         4         2        2.762550e-01
         5         2        5.732478e-01
         6         2       -5.953700e-01
         7         2        4.545399e-01
         8         2       -1.788302e+00
         9         2        1.829169e+00
        10         2        8.383425e-01
        11         2        2.783148e-01
        12         2        2.114868e+00
        13         2        1.300345e+00
        14         2        3.785462e-01
        15         2       -3.928729e-01
        16         2        4.739439e-01
        17         2       -1.064791e-01
        18         2        1.434137e+00
        19         2       -1.690366e+00
        20         2        6.224646e-01
        21         2       -1.125357e+00
        22         2       -6.318775e-03
        23         2        1.386102e+00
        24         2       -1.324717e+00
        25         2       -1.521236e+00
        26         2        4.809532e-01
        27         2       -4.691722e-01
        28         2       -1.755274e+00
        29         2        2.396061e+00
        30         2       -9.263661e-01
        31         2       -4.314166e-01
        32         2       -9.825835e-01
        33         2        5.235357e-01
        34         2       -1.327558e+00
        35         2        1.128733e+00
        36         2       -4.721793e-01
        37         2        5.955416e-01
        38         2       -3.698173e-01
        39         2       -8.847851e-01
        40         2        2.549500e-01
        41         2       -1.410063e-01
        42         2       -4.459060e-01
        43         2        2.347362e-01
        44         2       -8.052720e-01
        45         2       -1.748098e-01
        46         2       -4.548578e-01
        47         2       -7.312216e-01
        48         2        7.770260e-01
        49         2        1.204900e+00
        50         2        7.626229e-01
        51         2        3.647196e-01
        52         2       -8.487853e-02
        53         2       -2.671388e-01
        54         2        2.680611e-01
        55         2       -1.031277e+00
        56         2        1.810858e+00
        57         2        3.384117e-01
        58         2        5.428455e-01
        59         2        1.700126e+00
        60         2       -5.966158e-01
        61         2        6.174441e-02
        62         2        4.876800e-01
        63         2       -3.991098e-01
        64         2       -2.357032e-01
        65         2       -2.013235e-02
        66         2        4.650782e-01
        67         2       -1.318836e-01
        68         2        9.559909e-01
        69         2       -2.003057e+00
        70         2        1.158880e+00
        71         2        1.167495e+00
        72         2       -1.381247e+00
        73         2        4.750633e-02
        74         2        4.269787e-01
        75         2       -6.759356e-02
        76         2       -3.540966e-01
        77         2       -8.446781e-01
        78         2        1.492915e+00
        79         2       -5.189268e-01
        80         2       -1.793937e+00
        81         2       -9.823206e-01
        82         2       -2.098366e+00
        83         2       -2.093366e-01
        84         2       -2.163727e+00
        85         2       -3.654398e-01
        86         2        2.835536e-01
        87         2       -4.371882e-01
        88         2        1.545951e+00
        89         2        1.005274e+00
        90         2       -1.019311e+00
        91         2       -1.536501e+00
        92         2        5.423836e-01
        93         2       -1.336748e+00
        94         2        1.242251e+00
        95         2       -4.972822e-01
        96         2       -1.400025e+00
        97         2        1.919947e+00
        98         2        5.545417e-01
        99         2        1.119743e+00
       100         2        1.250390e+00
         1         3       -6.235506e-02
         2         3       -3.292179e+00
         3         3       -4.656770e-02
         4         3       -7.254291e-01
         5         3        1.208634e+00
         6         3       -1.401772e+00
         7         3        8.917661e-02
         8         3       -5.005441e-01
         9         3       -6.803480e-01
        10         3        5.547457e-02
        11         3       -2.298581e+00
        12         3        1.479836e-01
        13         3        6.826256e-01
        14         3       -2.472360e+00
        15         3       -1.028222e+00
        16         3       -8.886344e-01
        17         3        7.396742e-01
        18         3        3.543564e-01
        19         3       -8.338205e-01
        20         3        5.304119e-01
        21         3        1.509718e+00
        22         3       -2.585561e-01
        23         3        7.233662e-01
        24         3       -1.901072e-01
        25         3       -5.786129e-01
        26         3       -8.208707e-01
        27         3       -1.941754e-02
        28         3        8.708553e-01
        29         3        5.172650e-01
        30         3       -1.820662e-01
        31         3       -3.240730e-01
        32         3       -3.544162e-01
        33         3       -1.910572e+00
        34         3        8.419331e-01
        35         3       -4.805211e-01
        36         3        1.086905e+00
        37         3       -3.602061e-01
        38         3       -7.426470e-01
        39         3        4.230221e-01
        40         3        1.192963e+00
        41         3        6.157243e-02
        42         3       -8.452342e-02
        43         3       -6.133757e-01
        44         3        3.720405e-01
        45         3       -7.249934e-01
        46         3       -2.214527e-01
        47         3       -1.113045e+00
        48         3        3.437300e-01
        49         3        5.274934e-01
        50         3       -1.167909e+00
        51         3        7.420623e-01
        52         3       -5.943985e-01
        53         3        9.232107e-02
        54         3       -1.840972e+00
        55         3        4.914578e-01
        56         3       -7.242265e-01
        57         3        3.038303e-01
        58         3       -1.845274e+00
        59         3       -2.971276e-01
        60         3        5.275018e-01
        61         3        5.440384e-01
        62         3       -4.119317e-01
        63         3       -4.894406e-01
        64         3       -5.615410e-01
        65         3       -1.243948e+00
        66         3       -9.935438e-01
        67         3        3.453466e-02
        68         3        1.055442e+00
        69         3        1.234188e+00
        70         3       -3.449640e-01
        71         3        8.499006e-01
        72         3        3.175064e-02
        73         3        7.154517e-01
        74         3       -1.254591e+00
        75         3       -1.364431e+00
        76         3        1.626994e+00
        77         3       -8.301863e-01
        78         3       -1.086165e+00
        79         3        1.871312e-01
        80         3        8.423746e-01
        81         3       -9.024844e-01
        82         3       -5.084415e-01
        83         3        5.920206e-01
        84         3       -1.360231e+00
        85         3        2.374504e+00
        86         3       -9.594227e-01
        87         3        9.759769e-01
        88         3       -1.486781e+00
        89         3       -3.159481e-01
        90         3        4.682902e-01
        91         3        6.875882e-01
        92         3       -1.507236e+00
        93         3       -5.822165e-01
        94         3        1.362219e+00
        95         3        1.070332e+00
        96         3        1.708621e+00
        97         3        1.451452e+00
        98         3        7.927918e-01
        99         3       -1.003736e+00
       100         3       -4.480307e-01
         1         4       -3.897436e-01
         2         4       -8.222534e-02
         3         4        6.884867e-01
         4         4       -5.407681e-01
         5         4        8.290738e-01
         6         4        1.295759e+00
         7         4        2.305881e+00
         8         4       -5.159116e-01
         9         4       -5.279779e-01
        10         4       -7.015746e-01
        11         4        3.858525e-01
        12         4       -1.337452e+00
        13         4       -1.978788e+00
        14         4       -5.425298e-01
        15         4        1.158713e+00
        16         4       -4.989859e-01
        17         4       -6.688159e-01
        18         4       -1.328438e+00
        19         4       -4.865641e-01
        20         4       -5.426976e-01
        21         4        5.288563e-01
        22         4        1.653787e-01
        23         4        1.403037e+00
        24         4        3.209136e-01
        25         4       -2.052515e-01
        26         4       -1.684966e+00
        27         4        6.483044e-01
        28         4        7.864478e-01
        29         4        5.934089e-02
        30         4       -1.165081e+00
        31         4       -1.390997e+00
        32         4       -1.362151e+00
        33         4        7.522617e-01
        34         4        1.603537e-01
        35         4        7.809761e-01
        36         4       -2.320075e+00
        37         4        9.714872e-02
        38         4       -1.933337e-01
        39         4        2.059464e+00
        40         4        1.076315e+00
        41         4        3.230891e-01
        42         4        7.001756e-01
        43         4       -1.329932e+00
        44         4        2.597691e+00
        45         4       -3.666263e-01
        46         4        1.342898e+00
        47         4        1.394879e+00
        48         4        9.046684e-01
        49         4       -5.514325e-01
        50         4        1.664443e-01
        51         4       -1.118751e+00
        52         4       -2.428367e+00
        53         4        1.029003e-01
        54         4        3.271450e-02
        55         4       -1.296604e+00
        56         4       -7.802914e-01
        57         4       -1.713539e+00
        58         4       -7.389048e-01
        59         4       -8.292857e-03
        60         4        2.009115e-01
        61         4       -1.505741e+00
        62         4       -2.823384e-01
        63         4        1.172265e-02
        64         4       -3.000184e-01
        65         4        3.332551e-01
        66         4       -1.061558e-01
        67         4        5.024908e-01
        68         4        4.063642e-01
        69         4       -1.232708e-01
        70         4       -1.619970e+00
        71         4       -5.349755e-02
        72         4        5.324469e-01
        73         4       -1.085964e-02
        74         4        6.222662e-01
        75         4        8.656821e-01
        76         4        4.313000e-01
        77         4       -8.966097e-02
        78         4       -1.350857e-02
        79         4       -4.671136e-01
        80         4        4.461876e-01
        81         4       -7.442072e-01
        82         4       -2.491219e+00
        83         4       -1.883805e+00
        84         4       -1.216414e+00
        85         4        2.789641e-01
        86         4        6.962854e-01
        87         4       -1.716197e+00
        88         4       -7.845416e-01
        89         4        9.579542e-01
        90         4       -3.877829e-01
        91         4       -1.292708e+00
        92         4       -2.576542e-01
        93         4        9.448278e-01
        94         4       -1.529056e+00
        95         4        7.165982e-01
        96         4        7.374281e-01
        97         4       -1.360867e-01
        98         4       -8.043145e-01
        99         4        9.801906e-01
       100         4       -2.452018e-02
         1         5       -1.666916e+00
         2         5       -1.596463e+00
         3         5       -8.975598e-01
         4         5        1.297639e+00
         5         5       -6.721119e-01
         6         5        1.888201e-01
         7         5        1.284039e+00
         8         5       -2.941295e-01
         9         5       -1.807032e+00
        10         5       -1.390578e+00
        11         5       -8.088787e-01
        12         5        3.346951e-01
        13         5       -1.795159e+00
        14         5       -3.409095e-01
        15         5       -6.839270e-01
        16         5       -2.308496e-02
        17         5       -3.271754e+00
        18         5        1.155648e+00
        19         5        1.138627e+00
        20         5       -2.712147e-01
        21         5        6.567498e-01
        22         5        1.216189e+00
        23         5        9.821450e-01
        24         5       -1.237711e-01
        25         5       -6.040085e-01
        26         5       -1.070917e+00
        27         5       -1.370884e+00
        28         5       -4.057317e-01
        29         5        1.221856e+00
        30         5       -2.007763e+00
        31         5        1.252019e+00
        32         5       -2.160302e-01
        33         5       -9.788855e-01
        34         5       -9.671131e-01
        35         5        1.643023e+00
        36         5       -5.250107e-01
        37         5        6.694002e-01
        38         5        1.328233e-01
        39         5        5.680410e-01
        40         5        1.238553e+00
        41         5       -2.348156e-01
        42         5       -5.875179e-01
        43         5       -2.979981e-01
        44         5       -6.353281e-01
        45         5       -2.572392e+00
        46         5       -1.205880e+00
        47         5       -1.024916e+00
        48         5        6.656425e-01
        49         5       -4.526496e-03
        50         5       -1.731012e+00
        51         5        1.322738e+00
        52         5       -9.348959e-01
        53         5        1.144307e+00
        54         5        1.161619e-01
        55         5       -8.235464e-01
        56         5       -4.608111e-01
        57         5        6.068357e-01
        58         5        1.448111e+00
        59         5        1.730021e+00
        60         5       -1.297919e+00
        61         5       -4.041926e-01
        62         5       -3.140919e-01
        63         5        3.797997e-02
        64         5       -5.971776e-02
        65         5        3.420096e-01
        66         5       -2.906370e-01
        67         5       -1.181419e+00
        68         5       -1.707927e+00
        69         5       -9.061534e-01
        70         5       -8.241839e-01
        71         5       -2.322022e-01
        72         5        4.737019e-02
        73         5       -8.984862e-01
        74         5        1.267631e+00
        75         5       -9.687415e-01
        76         5        4.879662e-01
        77         5        2.433882e-01
        78         5       -5.842124e-01
        79         5       -4.564702e-01
        80         5        9.829220e-01
        81         5       -1.126550e+00
        82         5        4.156526e-01
        83         5       -6.345378e-01
        84         5       -2.416484e-01
        85         5       -1.243768e+00
        86         5       -2.728762e-01
        87         5       -1.204340e-02
        88         5       -8.589630e-01
        89         5        1.045379e+00
        90         5        3.295129e-01
        91         5       -1.221303e+00
        92         5        3.080569e-01
        93         5       -2.508613e+00
        94         5       -8.289021e-01
        95         5       -1.090685e+00
        96         5       -7.847750e-03
        97         5        7.673762e-01
        98         5        6.809545e-01
        99         5       -1.091811e+00
       100         5        1.310595e+00
;

param theta:=
    1        8.967767e-01
    2        1.583114e+00
    3        1.118037e+00
    4        8.087196e-01
    5       -4.960688e-01
;
param X_true:=
    1       -1.185849e-01
    2       -3.064245e+00
    3        1.005425e+00
    4       -5.022571e-01
    5        2.138175e+00
    6       -2.506612e+00
    7        2.213445e+00
    8       -3.943045e+00
    9        3.226404e+00
   10        1.277465e+00
   11       -3.346955e-01
   12        2.271304e+00
   13        1.028787e+00
   14       -1.644705e+00
   15       -5.702349e-01
   16       -2.066510e+00
   17        5.584932e-01
   18        7.092396e-01
   19       -4.206354e+00
   20       -3.099919e-02
   21        3.619676e-01
   22       -1.229904e-01
   23        1.050124e+00
   24       -3.367512e+00
   25       -1.152754e+00
   26       -3.654995e-01
   27        1.270903e+00
   28       -1.096696e+00
   29        4.287329e+00
   30       -2.616948e+00
   31       -4.260519e+00
   32       -1.021048e+00
   33       -8.686305e-01
   34        5.839735e-01
   35        7.166084e-01
   36       -3.463226e+00
   37        2.077447e+00
   38       -1.818009e+00
   39       -1.611330e-01
   40        1.672430e+00
   41       -1.341845e-01
   42        1.739172e-01
   43       -8.308544e-01
   44        7.822934e-01
   45        1.051398e+00
   46        1.506464e-01
   47       -7.232947e-01
   48        1.404950e+00
   49        4.040897e+00
   50        1.696223e+00
   51        3.828617e-01
   52       -3.187458e+00
   53        6.233823e-02
   54       -1.337015e+00
   55       -1.381166e+00
   56        1.433252e+00
   57       -2.321710e+00
   58       -2.978310e+00
   59        1.231502e+00
   60       -4.373642e-01
   61       -9.758669e-01
   62       -2.225805e-01
   63       -1.380261e+00
   64        3.553352e-02
   65       -1.389391e+00
   66       -2.516852e-01
   67        1.822880e+00
   68        3.339712e+00
   69        4.779133e-02
   70        4.874593e-01
   71        2.980757e+00
   72       -2.397989e+00
   73        1.974337e+00
   74        5.557633e-01
   75       -4.162989e-01
   76        2.200032e-01
   77       -1.620174e+00
   78        2.066543e+00
   79       -1.964702e-01
   80       -2.756116e+00
   81       -2.439644e+00
   82       -6.380373e+00
   83       -1.309109e+00
   84       -6.862725e+00
   85        3.867446e+00
   86       -4.783104e-01
   87       -1.017419e+00
   88        7.176545e-01
   89        1.787591e+00
   90       -2.412532e+00
   91       -2.287383e+00
   92       -9.751082e-01
   93        1.459775e+00
   94        2.876163e+00
   95        1.580204e+00
   96        7.367640e-01
   97        4.356896e+00
   98        1.383530e+00
   99        1.834581e+00
  100        1.487334e+00
;
param X:=
    1       -1.185849e-01
    2        8.407051e-01
    3       -3.367425e-01
    4       -5.022571e-01
    5        8.158349e-01
    6       -6.264835e-01
    7       -1.671167e+00
    8        4.236474e-01
    9        1.004291e+00
   10       -4.982033e-01
   11        1.256617e+00
   12        1.045712e+00
   13       -1.398532e+00
   14        1.100246e+00
   15        8.730377e-01
   16       -1.091011e+00
   17       -2.239152e+00
   18        9.935603e-01
   19       -1.376860e-01
   20        3.715879e-01
   21       -8.655004e-01
   22        1.031208e+00
   23       -2.415521e-01
   24       -3.367512e+00
   25       -3.875079e-01
   26        7.654039e-01
   27        1.632057e+00
   28       -9.900424e-01
   29        4.287329e+00
   30       -1.232032e+00
   31       -4.260519e+00
   32       -1.178363e-01
   33       -6.961386e-01
   34       -1.772324e-01
   35       -2.325232e+00
   36        1.355758e-01
   37       -5.614511e-02
   38       -2.665523e-01
   39       -1.611330e-01
   40       -9.974628e-01
   41        1.146307e+00
   42        3.342182e-02
   43        2.328980e-02
   44        1.074898e+00
   45        1.039762e-01
   46        5.116524e-01
   47        2.284858e+00
   48        7.029527e-01
   49        1.619900e-01
   50        1.696223e+00
   51        8.485852e-01
   52       -9.275786e-01
   53        1.364838e+00
   54        6.469831e-01
   55       -1.152551e+00
   56       -1.501424e+00
   57       -1.274678e+00
   58       -6.700726e-01
   59       -2.295588e+00
   60        1.376418e+00
   61       -1.654848e+00
   62       -2.225805e-01
   63        1.029596e+00
   64       -1.203847e-01
   65       -1.568102e+00
   66       -1.338271e+00
   67       -1.312596e+00
   68        7.311182e-02
   69       -4.399258e-01
   70        1.429273e+00
   71       -1.117523e+00
   72       -2.064442e+00
   73       -8.756400e-01
   74        2.988814e-01
   75       -2.724868e-01
   76       -6.174358e-01
   77       -1.677486e-01
   78        7.866697e-01
   79       -1.139893e+00
   80        1.227077e-01
   81       -2.439644e+00
   82       -6.380373e+00
   83       -1.276446e+00
   84        2.193324e+00
   85        2.329932e+00
   86       -1.060766e-01
   87       -1.322485e+00
   88        1.102431e+00
   89        1.868052e-02
   90       -2.287438e-01
   91       -9.556683e-02
   92       -9.228042e-01
   93       -5.208019e-01
   94       -1.022207e+00
   95       -4.380712e-01
   96        1.881070e+00
   97       -6.371329e-01
   98        1.435646e+00
   99        2.081460e-01
  100       -2.309962e-01
;
param outliervec:=
    1    0
    2    1
    3    1
    4    0
    5    1
    6    1
    7    1
    8    1
    9    1
   10    1
   11    1
   12    1
   13    1
   14    1
   15    1
   16    1
   17    1
   18    1
   19    1
   20    1
   21    1
   22    1
   23    1
   24    0
   25    1
   26    1
   27    1
   28    1
   29    0
   30    1
   31    0
   32    1
   33    1
   34    1
   35    1
   36    1
   37    1
   38    1
   39    0
   40    1
   41    1
   42    1
   43    1
   44    1
   45    1
   46    1
   47    1
   48    1
   49    1
   50    0
   51    1
   52    1
   53    1
   54    1
   55    1
   56    1
   57    1
   58    1
   59    1
   60    1
   61    1
   62    0
   63    1
   64    1
   65    1
   66    1
   67    1
   68    1
   69    1
   70    1
   71    1
   72    1
   73    1
   74    1
   75    1
   76    1
   77    1
   78    1
   79    1
   80    1
   81    0
   82    0
   83    1
   84    1
   85    1
   86    1
   87    1
   88    1
   89    1
   90    1
   91    1
   92    1
   93    1
   94    1
   95    1
   96    1
   97    1
   98    1
   99    1
  100    1
;